============================[ Problem Statistics ]=============================|                                                                             ||  Number of variables:          4242                                         ||  Number of clauses:            9763                                         ||  Parse time:                   0.17 s                                       ||                                                                             |============================[ Search Statistics ]==============================| Conflicts |          ORIGINAL         |          LEARNT          | Progress ||           |    Vars  Clauses Literals |    Limit  Clauses Lit/Cl |          |==============================================================================================================================================================restarts              : 1conflicts             : 99             (337 /sec)decisions             : 183            (0.00 % random) (622 /sec)propagations          : 8257           (28085 /sec)conflict literals     : 5226           (95.99 % deleted)CPU time              : 0.294 sSATISFIABLE